# LAMMPS input file for Lennard-Jones simulation. Second stage: Lennard-Jones simulation
units lj
dimension 3
boundary p p p
atom_style sphere

# Define the simulation box
#lattice sc 0.05
#region box block 0 16 0 16 0 16
#create_box 1 box
#create_atoms 1 box

# Read the initial configuration from a file
read_data random_initial_config_1_type.dat

# Attribute a velocity to each atom
velocity all create 1 87287

# Define the potential
pair_style lj/cut 2.5
pair_modify shift yes
pair_coeff 1 1 1.0 1.0

# Define the integrator
fix 1 all nvt temp 1 1 1

# Define the timestep
timestep 0.001

# Define the output
thermo_style custom step time temp density
thermo 10000
restart 10000 lj.restart1 lj.restart2
dump 1 all custom 100 traj_1_type.lammpstrj id type x y z #ix iy iz

# Run the simulation
run 100000
