# LAMMPS input file for Lennard-Jones simulation. First sage: randomization
units lj
dimension 3
boundary p p p
atom_style sphere

# Define the simulation box
lattice sc 0.01
#region box block 0 16 0 16 0 16
region box block 0 10 0 10 0 10
create_box 2 box
create_atoms 1 box

# We select the fisrt half of the atoms to be of type 1 and the second half to be of type 2
set type 1 type/fraction 2 0.5 87287

# Write the initial configuration to a file
write_data random_initial_config_2_types.dat

# Attribute a velocity to each atom
velocity all create 1 87287

# Define the potential (hard sphere)
pair_style harmonic/cut
pair_coeff 1 1 1.0 4.0
pair_coeff 2 2 1.0 4.0
pair_coeff 1 2 1.0 4.0

# Define the integrator (Langevin)
fix 1 all nvt temp 1 1 1
fix 2 all langevin 1 1 1 48279 

# Define the timestep
timestep 0.001

# Define the output
thermo_style custom step time temp density
thermo 100
restart 100 random.restart1 random.restart2
dump 1 all custom 1000 random_2_types.lammpstrj id type x y z #ix iy iz

# Run the simulation
run 100000

# Write the final configuration to a file with nocoeff
write_data random_initial_config_2_types.dat nocoeff
